79
13
89
83
0
94
70
28
82
179
16
129
56
41
183
0
35
174
64
57
228
154
62
196
74
0
15
76
0
64
10
15
163
31
31
11
126
143
0
49
48
51
94
30
38
118
16
29
63
66
42
36
24
207
56
37
53
53
86
54
176
101
81
139
41
169
46
49
23
64
50
89
0
101
122
43
150
81
77
20
124
109
78
26
0
119
54
74
68
28
138
107
44
13
163
157
144
181
159
13
